n = 50;
C = 224;
w = [184,33,500,458,149,494,41,402,248,71,15,451,161,301,20,13,50,426,104,171,231,484,213,263,122,83,380,484,36,19,450,282,354,139,108,158,48,457,259,428,14,168,104,230,10,223,429,291,152,313];
p = [168,24,529,466,194,523,33,408,275,106,22,431,166,294,7,53,32,411,104,124,214,503,184,294,99,91,397,457,25,29,428,326,336,177,82,199,43,487,263,463,-36,148,150,188,-8,216,419,260,153,267];
